NAME SOCP
ROWS
 N  OBJ
 E  R0      
 E  R1      
 E  R2      
 E  R3      
 E  R4      
 E  R5      
 E  R6      
 E  R7      
 E  R8      
 E  R9      
 E  R10     
 E  R11     
 E  R12     
 E  R13     
 E  R14     
 E  R15     
 E  R16     
 E  R17     
 E  R18     
 E  R19     
 E  R20     
 E  R21     
 E  R22     
 E  R23     
 E  R24     
 E  R25     
 E  R26     
 E  R27     
 E  R28     
 E  R29     
 E  R30     
 E  R31     
 E  R32     
 E  R33     
 E  R34     
 E  R35     
 E  R36     
 E  R37     
 E  R38     
 E  R39     
 E  R40     
 E  R41     
 L  qc0     
 L  qc1     
 L  qc2     
 L  qc3     
 L  qc4     
 L  qc5     
 L  qc6     
 L  qc7     
 L  qc8     
 L  qc9     
 L  qc10    
 L  qc11    
 L  qc12    
 L  qc13    
 L  qc14    
 L  qc15    
 L  qc16    
 L  qc17    
 L  qc18    
 L  qc19    
 L  qc20    
COLUMNS
    x_1       R0        -1
    x_1       R2        1
    x_1       R22       -1
    y_1       R1        -1
    y_1       R3        1
    y_1       R23       -1
    x_2       R2        -1
    x_2       R4        1
    x_2       R24       -1
    y_2       R3        -1
    y_2       R5        1
    y_2       R25       -1
    x_3       R4        -1
    x_3       R6        1
    x_3       R26       -1
    y_3       R5        -1
    y_3       R7        1
    y_3       R27       -1
    x_4       R6        -1
    x_4       R8        1
    x_4       R28       -1
    y_4       R7        -1
    y_4       R9        1
    y_4       R29       -1
    x_5       R8        -1
    x_5       R10       1
    x_5       R30       -1
    y_5       R9        -1
    y_5       R11       1
    y_5       R31       -1
    x_6       R10       -1
    x_6       R12       1
    x_6       R32       -1
    y_6       R11       -1
    y_6       R13       1
    y_6       R33       -1
    x_7       R12       -1
    x_7       R14       1
    x_7       R34       -1
    y_7       R13       -1
    y_7       R15       1
    y_7       R35       -1
    x_8       R14       -1
    x_8       R16       1
    x_8       R36       -1
    y_8       R15       -1
    y_8       R17       1
    y_8       R37       -1
    x_9       R16       -1
    x_9       R18       1
    x_9       R38       -1
    y_9       R17       -1
    y_9       R19       1
    y_9       R39       -1
    x_10      R18       -1
    x_10      R20       1
    x_10      R40       -1
    y_10      R19       -1
    y_10      R21       1
    y_10      R41       -1
    d_0       OBJ       1
    d_1       OBJ       1
    d_2       OBJ       1
    d_3       OBJ       1
    d_4       OBJ       1
    d_5       OBJ       1
    d_6       OBJ       1
    d_7       OBJ       1
    d_8       OBJ       1
    d_9       OBJ       1
    d_10      OBJ       1
    dx_0      R0        1
    dy_0      R1        1
    dx_1      R2        1
    dy_1      R3        1
    dx_2      R4        1
    dy_2      R5        1
    dx_3      R6        1
    dy_3      R7        1
    dx_4      R8        1
    dy_4      R9        1
    dx_5      R10       1
    dy_5      R11       1
    dx_6      R12       1
    dy_6      R13       1
    dx_7      R14       1
    dy_7      R15       1
    dx_8      R16       1
    dy_8      R17       1
    dx_9      R18       1
    dy_9      R19       1
    dx_10     R20       1
    dy_10     R21       1
    rx_1      R22       1
    ry_1      R23       1
    rx_2      R24       1
    ry_2      R25       1
    rx_3      R26       1
    ry_3      R27       1
    rx_4      R28       1
    ry_4      R29       1
    rx_5      R30       1
    ry_5      R31       1
    rx_6      R32       1
    ry_6      R33       1
    rx_7      R34       1
    ry_7      R35       1
    rx_8      R36       1
    ry_8      R37       1
    rx_9      R38       1
    ry_9      R39       1
    rx_10     R40       1
    ry_10     R41       1
RHS
    RHS1      R0        -50
    RHS1      R1        -50
    RHS1      R20       50
    RHS1      R21       50
    RHS1      R22       -9.5257463841533976e+01
    RHS1      R23       -6.0532922717102814e+01
    RHS1      R24       -3.9953462297940270e+01
    RHS1      R25       -7.9933443466653870e+01
    RHS1      R26       -5.9211496839618761e+01
    RHS1      R27       -8.2572758285191142e+01
    RHS1      R28       -5.8058510230445833e+01
    RHS1      R29       -8.5085289433574061e+01
    RHS1      R30       -2.7935270924026923e+00
    RHS1      R31       -8.1913540490470979e+01
    RHS1      R32       -3.4253075167384104e+01
    RHS1      R33       -3.9318389083211770e+01
    RHS1      R34       -7.4063940179731613e-01
    RHS1      R35       -3.3788849564946645e+01
    RHS1      R36       -4.2914137448938163e+01
    RHS1      R37       -1.2353984956089226e+01
    RHS1      R38       -9.7401343692522758e+01
    RHS1      R39       -3.6407918171966955e+01
    RHS1      R40       -94.5634959346547
    RHS1      R41       -2.2884668127303620e+01
    RHS1      qc11      100
    RHS1      qc12      100
    RHS1      qc13      100
    RHS1      qc14      100
    RHS1      qc15      100
    RHS1      qc16      100
    RHS1      qc17      100
    RHS1      qc18      100
    RHS1      qc19      100
    RHS1      qc20      100
BOUNDS
 LO BND1      x_1       -1.0259360598202683e+01
 UP BND1      x_1       1.0840134369252276e+02
 LO BND1      y_1       1.3539849560892261e+00
 UP BND1      y_1       9.6085289433574061e+01
 LO BND1      x_2       -1.0259360598202683e+01
 UP BND1      x_2       1.0840134369252276e+02
 LO BND1      y_2       1.3539849560892261e+00
 UP BND1      y_2       9.6085289433574061e+01
 LO BND1      x_3       -1.0259360598202683e+01
 UP BND1      x_3       1.0840134369252276e+02
 LO BND1      y_3       1.3539849560892261e+00
 UP BND1      y_3       9.6085289433574061e+01
 LO BND1      x_4       -1.0259360598202683e+01
 UP BND1      x_4       1.0840134369252276e+02
 LO BND1      y_4       1.3539849560892261e+00
 UP BND1      y_4       9.6085289433574061e+01
 LO BND1      x_5       -1.0259360598202683e+01
 UP BND1      x_5       1.0840134369252276e+02
 LO BND1      y_5       1.3539849560892261e+00
 UP BND1      y_5       9.6085289433574061e+01
 LO BND1      x_6       -1.0259360598202683e+01
 UP BND1      x_6       1.0840134369252276e+02
 LO BND1      y_6       1.3539849560892261e+00
 UP BND1      y_6       9.6085289433574061e+01
 LO BND1      x_7       -1.0259360598202683e+01
 UP BND1      x_7       1.0840134369252276e+02
 LO BND1      y_7       1.3539849560892261e+00
 UP BND1      y_7       9.6085289433574061e+01
 LO BND1      x_8       -1.0259360598202683e+01
 UP BND1      x_8       1.0840134369252276e+02
 LO BND1      y_8       1.3539849560892261e+00
 UP BND1      y_8       9.6085289433574061e+01
 LO BND1      x_9       -1.0259360598202683e+01
 UP BND1      x_9       1.0840134369252276e+02
 LO BND1      y_9       1.3539849560892261e+00
 UP BND1      y_9       9.6085289433574061e+01
 LO BND1      x_10      -1.0259360598202683e+01
 UP BND1      x_10      1.0840134369252276e+02
 LO BND1      y_10      1.3539849560892261e+00
 UP BND1      y_10      9.6085289433574061e+01
 FR BND1      dx_0    
 FR BND1      dy_0    
 FR BND1      dx_1    
 FR BND1      dy_1    
 FR BND1      dx_2    
 FR BND1      dy_2    
 FR BND1      dx_3    
 FR BND1      dy_3    
 FR BND1      dx_4    
 FR BND1      dy_4    
 FR BND1      dx_5    
 FR BND1      dy_5    
 FR BND1      dx_6    
 FR BND1      dy_6    
 FR BND1      dx_7    
 FR BND1      dy_7    
 FR BND1      dx_8    
 FR BND1      dy_8    
 FR BND1      dx_9    
 FR BND1      dy_9    
 FR BND1      dx_10   
 FR BND1      dy_10   
 FR BND1      rx_1    
 FR BND1      ry_1    
 FR BND1      rx_2    
 FR BND1      ry_2    
 FR BND1      rx_3    
 FR BND1      ry_3    
 FR BND1      rx_4    
 FR BND1      ry_4    
 FR BND1      rx_5    
 FR BND1      ry_5    
 FR BND1      rx_6    
 FR BND1      ry_6    
 FR BND1      rx_7    
 FR BND1      ry_7    
 FR BND1      rx_8    
 FR BND1      ry_8    
 FR BND1      rx_9    
 FR BND1      ry_9    
 FR BND1      rx_10   
 FR BND1      ry_10   
QCMATRIX   qc0     
    d_0       d_0       -1
    dx_0      dx_0      1
    dy_0      dy_0      1
QCMATRIX   qc1     
    d_1       d_1       -1
    dx_1      dx_1      1
    dy_1      dy_1      1
QCMATRIX   qc2     
    d_2       d_2       -1
    dx_2      dx_2      1
    dy_2      dy_2      1
QCMATRIX   qc3     
    d_3       d_3       -1
    dx_3      dx_3      1
    dy_3      dy_3      1
QCMATRIX   qc4     
    d_4       d_4       -1
    dx_4      dx_4      1
    dy_4      dy_4      1
QCMATRIX   qc5     
    d_5       d_5       -1
    dx_5      dx_5      1
    dy_5      dy_5      1
QCMATRIX   qc6     
    d_6       d_6       -1
    dx_6      dx_6      1
    dy_6      dy_6      1
QCMATRIX   qc7     
    d_7       d_7       -1
    dx_7      dx_7      1
    dy_7      dy_7      1
QCMATRIX   qc8     
    d_8       d_8       -1
    dx_8      dx_8      1
    dy_8      dy_8      1
QCMATRIX   qc9     
    d_9       d_9       -1
    dx_9      dx_9      1
    dy_9      dy_9      1
QCMATRIX   qc10    
    d_10      d_10      -1
    dx_10     dx_10     1
    dy_10     dy_10     1
QCMATRIX   qc11    
    rx_1      rx_1      1
    ry_1      ry_1      1
QCMATRIX   qc12    
    rx_2      rx_2      1
    ry_2      ry_2      1
QCMATRIX   qc13    
    rx_3      rx_3      1
    ry_3      ry_3      1
QCMATRIX   qc14    
    rx_4      rx_4      1
    ry_4      ry_4      1
QCMATRIX   qc15    
    rx_5      rx_5      1
    ry_5      ry_5      1
QCMATRIX   qc16    
    rx_6      rx_6      1
    ry_6      ry_6      1
QCMATRIX   qc17    
    rx_7      rx_7      1
    ry_7      ry_7      1
QCMATRIX   qc18    
    rx_8      rx_8      1
    ry_8      ry_8      1
QCMATRIX   qc19    
    rx_9      rx_9      1
    ry_9      ry_9      1
QCMATRIX   qc20    
    rx_10     rx_10     1
    ry_10     ry_10     1
ENDATA
